p cnf 11 20
-11 -7 1 0
11 2 -1 0
-10 -7 -5 0
-10 6 -5 0
-10 5 4 0
-10 -5 -3 0
-10 -4 1 0
10 -4 -1 0
-9 -6 5 0
9 -2 1 0
-9 2 1 0
-8 -7 -1 0
-8 -6 2 0
-8 6 -1 0
8 -2 -1 0
7 -6 1 0
7 4 -2 0
-7 -4 1 0
7 -2 1 0
4 -3 -2 0
